(set-logic QF_S)
(set-option :strings-exp true)
(set-option :produce-models true)
(declare-fun sigmaStar_0 () String)
(declare-fun sigmaStar_1 () String)
(declare-fun literal_16 () String)
(assert (= literal_16 "\x3c\x69\x6d\x67\x20\x73\x72\x63\x3d\x22\x2f\x62\x6c\x6f\x67\x2f\x62\x6c\x6f\x67\x2e\x67\x69\x66\x22\x20\x61\x6c\x74\x3d\x22\x62\x6c\x6f\x67\x74\x68\x69\x73\x22\x20\x74\x69\x74\x6c\x65\x3d\x22\x62\x6c\x6f\x67\x74\x68\x69\x73\x22\x20\x62\x6f\x72\x64\x65\x72\x3d\x22\x30\x22\x20\x61\x6c\x69\x67\x6e\x3d\x22\x6d\x69\x64\x64\x6c\x65\x22\x20\x2f\x3e\x5c\x6e"))
(assert (str.in.re literal_16 (re.++ (re.* re.allchar) (re.++ (str.to.re "\x5c\x3c\x53\x43\x52\x49\x50\x54") (re.* re.allchar)))))
(check-sat)
(get-model)
